45746.63,60.43,73.29
50781.1,54.44,66.02
40746.25,67.85,82.28
45440.13,60.84,73.78
52992.43,52.17,63.27
42215.64,65.49,79.42
41060.82,67.33,81.65
50115.98,55.16,66.9
40549.09,68.18,82.68
47769.9,57.87,70.18
49089.33,56.32,68.3
43401.73,63.7,77.25
48468.82,57.04,69.17
47231.72,58.53,70.98
43556.45,63.47,76.97
51975.36,53.19,64.5
43502.31,63.55,77.07
54434.86,50.79,61.59
42127.36,65.62,79.58
47815.48,57.82,70.12
